
Route #1: 47 28 50 61 37 48 30 
Route #2: 41 53 52 17 59 44 25 19 
Route #3: 1 65 8 58 32 40 29 39 60 15 4 33 
Route #4: 34 51 22 56 13 57 38 
Route #5: 18 55 23 54 45 31 35 
Route #6: 20 62 16 63 46 26 64 
Route #7: 11 7 36 49 24 42 
Route #8: 12 9 5 14 3 21 
Route #9: 6 10 2 27 43 
cost 1808.78
total time is 6.8